(set-info :smt-lib-version 2.6)
(set-logic QF_UFLRA)
(set-info :source |
MathSat group

|)
(set-info :category "random")
(set-info :status unsat)
(declare-fun x0 () Real)
(declare-fun x1 () Real)
(declare-fun x2 () Real)
(declare-fun x3 () Real)
(declare-fun x4 () Real)
(declare-fun x5 () Real)
(declare-fun x6 () Real)
(declare-fun x7 () Real)
(declare-fun x8 () Real)
(declare-fun x9 () Real)
(declare-fun x10 () Real)
(declare-fun x11 () Real)
(declare-fun x12 () Real)
(declare-fun x13 () Real)
(declare-fun x14 () Real)
(declare-fun x15 () Real)
(declare-fun x16 () Real)
(declare-fun x17 () Real)
(declare-fun x18 () Real)
(declare-fun x19 () Real)
(declare-fun x20 () Real)
(declare-fun x21 () Real)
(declare-fun x22 () Real)
(declare-fun x23 () Real)
(declare-fun x24 () Real)
(declare-fun x25 () Real)
(declare-fun x26 () Real)
(declare-fun x27 () Real)
(declare-fun x28 () Real)
(declare-fun x29 () Real)
(declare-fun f0_1 (Real) Real)
(declare-fun f0_2 (Real Real) Real)
(declare-fun f0_3 (Real Real Real) Real)
(declare-fun f0_4 (Real Real Real Real) Real)
(declare-fun P0 () Bool)
(declare-fun P1 () Bool)
(declare-fun P2 () Bool)
(declare-fun P3 () Bool)
(declare-fun P4 () Bool)
(declare-fun P5 () Bool)
(declare-fun P6 () Bool)
(declare-fun P7 () Bool)
(declare-fun P8 () Bool)
(declare-fun P9 () Bool)
(declare-fun P10 () Bool)
(declare-fun P11 () Bool)
(declare-fun P12 () Bool)
(declare-fun P13 () Bool)
(declare-fun P14 () Bool)
(declare-fun P15 () Bool)
(declare-fun P16 () Bool)
(declare-fun P17 () Bool)
(declare-fun P18 () Bool)
(declare-fun P19 () Bool)
(declare-fun P20 () Bool)
(declare-fun P21 () Bool)
(declare-fun P22 () Bool)
(declare-fun P23 () Bool)
(declare-fun P24 () Bool)
(declare-fun P25 () Bool)
(declare-fun P26 () Bool)
(declare-fun P27 () Bool)
(declare-fun P28 () Bool)
(declare-fun P29 () Bool)
(assert (let ((?v_103 (<= (- (+ (* 31 x5) (* 19 x3)) (* 26 x7)) 18)) (?v_48 (distinct (- (- (* 34 x0) (* 2 x13)) (* 18 x11)) 8)) (?v_95 (* 5 x7)) (?v_67 (< (- (+ (* 21 x23) (* 10 x19)) (* 14 x19)) 2)) (?v_101 (< (- (- (* 22 x22) (* 42 x23)) (* 14 x25)) 15)) (?v_4 (< (- (+ (* 18 x18) (* 28 x2)) (* 15 x2)) 32)) (?v_24 (* 30 x12)) (?v_46 (<= (- (+ (* 6 x6) (* 7 x1)) (* 42 x1)) 6)) (?v_18 (* 17 x13)) (?v_7 (distinct x11 x4)) (?v_1 (distinct x20 (f0_1 x9))) (?v_23 (f0_1 x18))) (let ((?v_15 (distinct ?v_23 (f0_1 x7))) (?v_80 (f0_1 x14))) (let ((?v_120 (distinct x1 ?v_80)) (?v_11 (= x23 (f0_1 x2))) (?v_22 (distinct (f0_2 x21 x4) (f0_2 x21 x27))) (?v_19 (distinct (f0_2 x29 x4) (f0_2 x15 x9))) (?v_69 (= x7 (f0_1 x1))) (?v_42 (distinct (f0_2 x29 x0) (f0_2 x26 x24))) (?v_35 (distinct (f0_2 x17 x5) (f0_2 x20 x20))) (?v_60 (= (f0_1 x28) x15)) (?v_41 (= x14 (f0_2 x12 x3))) (?v_30 (distinct (f0_2 x21 x24) x9)) (?v_124 (distinct (f0_2 x15 x18) (f0_1 x5))) (?v_3 (f0_1 x8))) (let ((?v_6 (distinct ?v_3 (f0_2 x15 x0))) (?v_2 (distinct x22 (f0_1 x16))) (?v_118 (distinct (f0_2 x25 x7) (f0_2 x16 x18))) (?v_71 (distinct (f0_2 x13 x20) (f0_2 x23 x5))) (?v_99 (distinct (f0_1 x12) x23)) (?v_56 (= x18 (f0_2 x20 x10))) (?v_40 (distinct x15 (f0_2 x5 x21))) (?v_0 (f0_1 x24))) (let ((?v_52 (distinct ?v_0 x4)) (?v_79 (= (f0_2 x28 x15) ?v_23)) (?v_9 (= ?v_3 (f0_2 x24 x16))) (?v_148 (= (f0_2 x26 x2) (f0_2 x11 x16))) (?v_84 (= (f0_1 x17) (f0_2 x15 x23))) (?v_20 (= (f0_1 x22) ?v_80)) (?v_76 (distinct x0 (f0_2 x9 x19))) (?v_16 (distinct x29 (f0_2 x10 x0))) (?v_5 (= (f0_1 x3) ?v_0))) (let ((?v_12 (not ?v_5)) (?v_26 (not P27)) (?v_10 (not P21)) (?v_106 (not P8)) (?v_146 (not ?v_7)) (?v_47 (not ?v_52)) (?v_72 (not ?v_1)) (?v_39 (not ?v_71)) (?v_91 (not ?v_2)) (?v_68 (not P7)) (?v_38 (not P22)) (?v_31 (not P26)) (?v_85 (not ?v_35)) (?v_32 (not P10)) (?v_108 (not P29)) (?v_114 (not ?v_11)) (?v_25 (not P25)) (?v_78 (not P13)) (?v_111 (not P18)) (?v_28 (not P20)) (?v_83 (not ?v_15)) (?v_45 (not P4)) (?v_34 (not P5)) (?v_36 (not ?v_19)) (?v_116 (not P3)) (?v_112 (not ?v_79)) (?v_123 (not ?v_103)) (?v_63 (not ?v_30)) (?v_154 (not P14)) (?v_51 (not P16)) (?v_138 (not P12)) (?v_97 (not P2)) (?v_61 (not ?v_41)) (?v_86 (not ?v_42)) (?v_54 (not P9)) (?v_139 (not ?v_4)) (?v_134 (not ?v_48)) (?v_58 (not ?v_6)) (?v_117 (not P11)) (?v_77 (not ?v_22)) (?v_64 (not ?v_56)) (?v_70 (not ?v_46)) (?v_94 (not ?v_9)) (?v_136 (not P28)) (?v_127 (not ?v_67)) (?v_90 (not ?v_69)) (?v_109 (not P17))) (let ((?v_159 (or ?v_51 ?v_78)) (?v_122 (not ?v_120)) (?v_88 (not ?v_118)) (?v_100 (not ?v_84)) (?v_107 (not P6)) (?v_121 (not ?v_76)) (?v_133 (not ?v_20)) (?v_105 (not P1)) (?v_135 (not ?v_148)) (?v_104 (not ?v_40)) (?v_119 (not P19)) (?v_129 (not ?v_60)) (?v_137 (not ?v_101)) (?v_152 (not ?v_99)) (?v_156 (not ?v_124)) (?v_147 (not P24)) (?v_131 (not P15)) (?v_128 (or ?v_106 P14)) (?v_149 (not P23)) (?v_150 (not ?v_16))) (let ((?v_161 (or ?v_150 ?v_11)) (?v_17 (< (+ (- 0 (* 11 x4)) (* 20 x10)) 22)) (?v_92 (< (+ (* 6 x15) (* 41 x1) (* 3 x29)) 9))) (let ((?v_14 (not ?v_92)) (?v_89 (< (- (+ (* 10 x18) x27) (* 29 x20)) 0))) (let ((?v_62 (not ?v_89)) (?v_73 (< (+ (* 32 x10) (* 24 x19) (* 13 x13)) 30))) (let ((?v_75 (not ?v_73)) (?v_55 (<= (+ (* 38 x18) (* 29 x9) (* 15 x10)) 19))) (let ((?v_87 (not ?v_55)) (?v_74 (not ?v_17)) (?v_145 (or ?v_54 ?v_92)) (?v_142 (< (+ (* 24 x10) (* 42 x12) (* 20 x25)) 43))) (let ((?v_110 (not ?v_142)) (?v_96 (< (- (+ (* (- 33) x4) (* 21 x17)) (* 25 x2)) (- 23)))) (let ((?v_140 (not ?v_96)) (?v_27 (< (+ (- (* (- 40) x11) (* 40 x11)) ?v_95) 17)) (?v_33 (<= (+ (* (- 8) x15) (* 10 x15) (* 34 x4)) 38)) (?v_44 (= (- (+ (* (- 9) x1) (* 8 x26)) (* 4 x14)) (- 8)))) (let ((?v_8 (not ?v_44)) (?v_13 (= (+ (* (- 1) x11) (* 38 x4) (* 19 x14)) 19)) (?v_29 (distinct (- (+ (* (- 38) x5) ?v_18) (* 35 x23)) 34))) (let ((?v_50 (not ?v_13)) (?v_59 (< (+ (- (* (- 3) x18) (* 30 x7)) (* 24 x7)) (- 26))) (?v_21 (<= (- (- ?v_24 (* 22 x6)) ?v_18) (- 32))) (?v_37 (< (+ (- (* (- 17) x5) (* 29 x1)) ?v_24) 15))) (let ((?v_49 (not ?v_37)) (?v_82 (<= (+ (- (* (- 14) x7) (* 34 x14)) x14) (- 33)))) (let ((?v_43 (not ?v_82)) (?v_93 (<= (+ (- (* (- 26) x21) (* 32 x16)) (* 6 x25)) 31)) (?v_65 (not ?v_27)) (?v_53 (not ?v_33)) (?v_81 (not ?v_21)) (?v_115 (< (+ (* 18 x22) (* 3 x24)) (- 5))) (?v_158 (<= (- (+ (* (- 18) x1) (* 19 x20)) (* 24 x14)) (- 30)))) (let ((?v_141 (not ?v_158)) (?v_57 (<= (+ (- (* (- 32) x25) (* 27 x20)) (* 21 x24)) (- 25))) (?v_98 (<= (+ (- (* (- 12) x23) (* 39 x16)) x25) 22)) (?v_113 (not ?v_59)) (?v_125 (< (+ (- (* (- 15) x10) 0) (* 20 x23)) (- 12)))) (let ((?v_66 (not ?v_125)) (?v_126 (not ?v_57)) (?v_143 (= (+ (- (* (- 6) x1) (* 38 x25)) (* 21 x4)) 36))) (let ((?v_151 (not ?v_143)) (?v_153 (not ?v_93)) (?v_132 (<= (+ (- (* (- 37) x18) ?v_95) (* 29 x29)) 33)) (?v_102 (not ?v_29)) (?v_130 (not ?v_115)) (?v_160 (or ?v_8 ?v_111)) (?v_144 (not ?v_98)) (?v_157 (or ?v_81 ?v_17))) (let ((?v_155 (not ?v_132))) (and (and (and (and (and (and (and (and (and (and (and (and (and (and (and (and (and (and (and (and (and (and (and (and (and (and (and (and (and (and (and (and (and (and (and (and (and (and (and (and (and (and (and (and (and (and (and (and (and (and (and (and (and (and (and (and (and (and (and (and (and (and (and (and (and (and (and (and (and (and (and (and (and (and (and (and (and (and (and (and (and (and (and (and (and (and (and (and (and (and (and (and (and (and (and (and (and (and (and (and (and (and (and (and (and (and (and (and (and (and (and (and (and (and (and (and (and (and (and (and (and (and (and (and (and (and (and (and (and (and (and (and (and (and (and (and (and (and (and (and (and (and (and (and (and (and (and (and (and (and (and (and (and (and (and (and (and (and (and (and (and (and (and (and (and (and (and (and (and (and (and (and (and (and (and (and (and (and (and (and (and (and (and (and (and (and (and (and (and (and (and (and (and (and (and (and (and (and (and (and (and (and (and (and (and (and (and (and (and (and (and (and (and (and (and (and (and (and (and (and (and (and (and (and (and (and (and (and (and (and (and (and (and (and (and (and (and (and (and (and (and (and (and (and (and (and (and (and (and (and (and (and (and (and (and (and (and (and (and (and (and (and (and (and (and (and (and (and (and (and (and (and (and (and (and (and (and (and (and (and (and (and (and (and (and (and (and (and (and (and (and (and (and (and (and (and (and (and (and (and (and (and (and (and (and (and (and (and (and (and (and (and (and (and (and (and (and (and (and (and (and (and (and (and (and (and (and (and (and (and (and (and (and (and (and (and (and (and (and (and (and (and (and (and (and (and (and (and (and (and (and (and (and (and (and (and (and (and (and (and (and (and (and (and (and (and (and (and (and (and (and (and (and (and (and (and (and (and (and (and (and (and (and (and (and (and (and (and (and (and (and (and (and (and (and (and (and (and (and (and (and (and (and (and (and (and (and (and (and (and (and (and (and (and (and (and (and (and (and (and (and (and (and (and (and (and (and (and (and (and (and (and (and (and (and (and (and (and (and (and (and (and (and (and (and (and (and (and (and (or (or ?v_140 ?v_27) ?v_11) (or (or ?v_12 ?v_26) ?v_10)) (or (or ?v_1 ?v_4) ?v_33)) (or (or ?v_30 ?v_9) ?v_106)) (or (or ?v_8 P16) ?v_2)) (or (or ?v_17 P24) ?v_146)) (or (or ?v_47 ?v_72) ?v_39)) (or (or P10 ?v_13) ?v_76)) (or (or ?v_91 ?v_6) P1)) (or (or ?v_4 ?v_68) ?v_14)) (or (or ?v_38 ?v_5) ?v_62)) (or (or ?v_31 ?v_19) ?v_22)) (or (or P1 ?v_6) ?v_29)) (or (or ?v_20 ?v_85) P1)) (or (or P1 ?v_7) ?v_8)) (or (or ?v_32 ?v_9) P6)) (or (or ?v_75 ?v_108) ?v_4)) (or (or ?v_15 P25) ?v_10)) (or (or ?v_114 ?v_25) ?v_84)) (or (or ?v_41 ?v_78) ?v_12)) (or (or ?v_16 P11) ?v_50)) (or (or P3 ?v_87) ?v_111)) (or (or ?v_28 ?v_14) P24)) (or (or ?v_83 ?v_45) ?v_48)) (or (or ?v_16 ?v_59) ?v_4)) (or (or ?v_34 ?v_67) ?v_17)) (or (or ?v_21 ?v_36) ?v_116)) (or (or ?v_4 ?v_40) ?v_20)) (or (or ?v_60 ?v_21) ?v_22)) (or (or ?v_112 ?v_12) ?v_49)) (or (or ?v_25 ?v_43) ?v_26)) (or (or ?v_27 ?v_123) ?v_28)) (or (or ?v_29 ?v_63) ?v_42)) (or (or P18 P15) P13)) (or (or ?v_93 ?v_31) ?v_32)) (or (or ?v_7 P25) ?v_33)) (or (or ?v_154 ?v_56) ?v_34)) (or (or ?v_25 ?v_34) ?v_51)) (or (or ?v_35 ?v_65) P3)) (or (or ?v_138 P12) ?v_36)) (or (or ?v_37 ?v_38) ?v_53)) (or (or P1 ?v_39) ?v_19)) (or (or ?v_81 ?v_29) ?v_46)) (or (or ?v_97 ?v_40) P9)) (or (or ?v_61 ?v_86) ?v_43)) (or (or ?v_54 ?v_44) (not P0))) (or (or P6 P20) ?v_45)) (or (or ?v_115 ?v_46) ?v_139)) (or (or P26 ?v_47) ?v_99)) (or (or P10 ?v_46) ?v_134)) (or (or ?v_58 ?v_74) ?v_117)) (or (or ?v_2 ?v_49) P6)) (or (or P12 ?v_50) P20)) (or (or ?v_141 ?v_51) ?v_101)) (or (or ?v_19 ?v_46) ?v_52)) (or (or P25 ?v_53) ?v_13)) (or (or ?v_12 ?v_47) ?v_57)) (or (or ?v_54 ?v_12) ?v_19)) (or (or ?v_55 ?v_77) ?v_64)) (or (or ?v_17 ?v_57) ?v_58)) (or (or ?v_70 ?v_98) ?v_113)) (or (or ?v_69 ?v_60) ?v_61)) (or (or ?v_94 ?v_62) ?v_40)) (or (or P3 ?v_63) ?v_47)) (or (or ?v_64 ?v_136) ?v_54)) (or (or ?v_31 ?v_65) ?v_61)) (or (or P20 ?v_66) ?v_52)) (or (or P16 ?v_66) ?v_62)) (or (or P16 ?v_4) ?v_127)) (or (or ?v_68 ?v_1) ?v_42)) (or (or ?v_90 ?v_70) ?v_32)) (or (or ?v_71 ?v_63) ?v_109)) (or (or ?v_72 ?v_14) ?v_73)) (or (or P18 ?v_74) ?v_75)) (or (or ?v_76 ?v_77) ?v_126)) (or (or ?v_73 ?v_33) P11)) (or ?v_159 ?v_79)) (or (or ?v_122 ?v_9) ?v_81)) (or (or ?v_12 P6) ?v_82)) (or (or ?v_78 ?v_37) ?v_79)) (or (or ?v_17 ?v_88) ?v_83)) (or (or ?v_100 ?v_151) P5)) (or (or ?v_17 P6) ?v_71)) (or (or P21 ?v_38) P7)) (or (or ?v_63 P18) P24)) (or (or ?v_83 ?v_51) ?v_85)) (or (or ?v_86 ?v_87) ?v_107)) (or (or ?v_55 ?v_121) ?v_88)) (or (or ?v_89 ?v_90) ?v_91)) (or ?v_145 ?v_93)) (or (or ?v_153 ?v_22) ?v_94)) (or (or ?v_133 ?v_105) ?v_132)) (or (or P5 ?v_96) ?v_102)) (or (or ?v_135 ?v_62) ?v_34)) (or (or ?v_83 ?v_65) ?v_4)) (or (or P27 ?v_45) ?v_110)) (or (or ?v_97 P12) ?v_104)) (or (or ?v_98 ?v_32) ?v_42)) (or (or ?v_99 ?v_43) ?v_42)) (or (or ?v_100 ?v_29) ?v_101)) (or (or ?v_102 ?v_103) P11)) (or (or P16 ?v_104) ?v_41)) (or (or ?v_105 ?v_73) P23)) (or (or ?v_106 ?v_42) ?v_64)) (or (or ?v_63 ?v_71) ?v_77)) (or (or ?v_107 P19) ?v_29)) (or (or ?v_22 ?v_86) ?v_33)) (or (or P19 P26) ?v_8)) (or (or ?v_108 P7) ?v_109)) (or (or P5 ?v_45) ?v_100)) (or (or ?v_110 ?v_6) ?v_90)) (or (or ?v_87 ?v_2) ?v_119)) (or (or ?v_103 ?v_111) ?v_37)) (or (or ?v_81 ?v_81) ?v_78)) (or (or ?v_112 ?v_108) ?v_40)) (or (or ?v_113 ?v_114) ?v_130)) (or (or P17 ?v_116) ?v_113)) (or (or P15 ?v_34) ?v_117)) (or (or ?v_27 P26) P8)) (or (or P12 ?v_2) P2)) (or (or ?v_58 P22) ?v_62)) (or (or ?v_107 ?v_79) P11)) (or (or ?v_115 ?v_1) ?v_110)) (or (or ?v_49 ?v_33) ?v_1)) (or (or ?v_91 ?v_88) ?v_6)) (or (or ?v_12 ?v_45) ?v_11)) (or (or ?v_129 ?v_114) ?v_64)) (or (or P22 P9) ?v_36)) (or (or ?v_14 P19) P3)) (or (or ?v_83 ?v_25) ?v_64)) (or (or ?v_20 ?v_32) ?v_75)) (or (or P27 P23) P25)) (or (or ?v_68 ?v_118) ?v_109)) (or (or ?v_112 ?v_56) ?v_117)) (or (or ?v_29 ?v_112) ?v_119)) (or (or ?v_98 ?v_40) ?v_68)) (or (or ?v_87 ?v_120) ?v_17)) (or (or P14 P6) ?v_65)) (or (or ?v_77 P25) ?v_64)) (or (or ?v_14 ?v_35) ?v_66)) (or (or ?v_92 P25) ?v_59)) (or (or ?v_84 P7) ?v_38)) (or (or ?v_121 ?v_108) ?v_122)) (or (or P14 ?v_137) P10)) (or (or ?v_34 ?v_61) ?v_101)) (or (or ?v_122 ?v_83) P14)) (or (or P9 P6) ?v_49)) (or (or ?v_106 P21) ?v_27)) (or (or ?v_124 ?v_61) P8)) (or (or ?v_91 ?v_74) ?v_123)) (or (or ?v_17 P16) ?v_12)) (or (or ?v_14 ?v_36) ?v_94)) (or (or ?v_2 ?v_48) ?v_6)) (or (or ?v_123 ?v_40) ?v_27)) (or (or ?v_16 ?v_21) ?v_152)) (or (or ?v_45 ?v_9) ?v_19)) (or (or ?v_156 P10) ?v_93)) (or (or ?v_70 ?v_21) ?v_147)) (or (or ?v_74 ?v_107) ?v_27)) (or (or ?v_61 ?v_32) ?v_125)) (or (or ?v_4 ?v_87) ?v_110)) (or (or ?v_31 ?v_131) ?v_25)) (or (or P22 ?v_49) P7)) (or (or ?v_126 ?v_22) ?v_127)) (or (or ?v_124 P6) P3)) (or ?v_128 P11)) (or ?v_128 ?v_50)) (or ?v_160 ?v_120)) (or (or ?v_129 ?v_47) P29)) (or (or ?v_130 ?v_43) P0)) (or (or ?v_14 ?v_4) ?v_131)) (or (or ?v_149 ?v_121) ?v_9)) (or (or ?v_132 ?v_70) ?v_133)) (or (or ?v_81 ?v_13) ?v_144)) (or (or ?v_131 ?v_49) ?v_60)) (or (or ?v_124 ?v_127) ?v_134)) (or (or ?v_44 ?v_28) ?v_102)) (or (or ?v_135 ?v_136) ?v_52)) (or (or ?v_11 ?v_4) ?v_31)) (or (or ?v_88 ?v_71) ?v_62)) (or (or P13 ?v_88) ?v_74)) (or (or ?v_26 ?v_2) ?v_45)) (or (or ?v_125 ?v_137) P29)) (or (or ?v_74 ?v_20) ?v_31)) (or (or ?v_63 P17) P22)) (or (or ?v_13 ?v_45) ?v_63)) (or (or ?v_138 P8) ?v_75)) (or (or ?v_43 ?v_110) ?v_79)) (or (or ?v_99 ?v_139) ?v_46)) (or (or ?v_12 ?v_55) P20)) (or (or ?v_140 ?v_46) ?v_61)) (or (or ?v_78 ?v_141) P22)) (or (or ?v_74 ?v_150) P5)) (or (or ?v_64 ?v_49) ?v_79)) (or (or ?v_42 ?v_89) ?v_45)) (or (or P27 ?v_127) ?v_92)) (or (or ?v_105 ?v_31) ?v_38)) (or (or ?v_64 ?v_4) ?v_35)) (or (or ?v_49 P15) ?v_142)) (or (or ?v_143 ?v_59) ?v_20)) (or (or ?v_99 ?v_105) ?v_98)) (or (or ?v_144 ?v_13) ?v_35)) (or (or ?v_133 ?v_118) ?v_42)) (or (or ?v_86 ?v_130) ?v_11)) (or (or ?v_31 ?v_33) ?v_78)) (or (or ?v_72 ?v_51) ?v_119)) (or ?v_157 ?v_65)) (or ?v_145 ?v_56)) (or (or ?v_38 ?v_65) P5)) (or (or ?v_37 ?v_32) ?v_53)) (or (or ?v_17 ?v_124) ?v_14)) (or (or ?v_31 ?v_119) ?v_85)) (or (or ?v_44 ?v_111) ?v_146)) (or (or ?v_88 ?v_36) P3)) (or (or ?v_132 ?v_30) ?v_79)) (or (or ?v_33 ?v_147) ?v_100)) (or (or ?v_65 ?v_148) ?v_155)) (or (or ?v_93 P20) ?v_11)) (or (or ?v_42 ?v_40) ?v_56)) (or (or ?v_55 P23) ?v_65)) (or (or ?v_149 ?v_45) ?v_77)) (or (or ?v_19 ?v_39) ?v_83)) (or (or ?v_6 ?v_120) P20)) (or (or ?v_150 ?v_70) ?v_132)) (or (or ?v_51 ?v_6) P2)) (or (or ?v_82 P20) ?v_111)) (or (or P26 ?v_42) ?v_148)) (or (or ?v_93 P21) ?v_83)) (or (or ?v_113 ?v_16) ?v_50)) (or (or ?v_96 ?v_29) ?v_74)) (or (or ?v_47 ?v_130) ?v_16)) (or (or ?v_151 ?v_91) P1)) (or (or ?v_117 ?v_129) ?v_55)) (or (or P11 ?v_152) ?v_36)) (or (or ?v_21 ?v_34) ?v_147)) (or (or ?v_78 ?v_10) ?v_21)) (or (or ?v_5 ?v_102) ?v_14)) (or (or P7 ?v_139) P21)) (or (or ?v_66 ?v_58) ?v_87)) (or (or ?v_29 ?v_103) ?v_26)) (or (or P28 ?v_83) ?v_65)) (or (or ?v_143 ?v_4) ?v_65)) (or (or ?v_107 ?v_153) P13)) (or (or P2 ?v_132) ?v_115)) (or ?v_161 ?v_15)) (or (or P17 ?v_5) P6)) (or (or P14 P11) ?v_87)) (or (or ?v_136 ?v_109) ?v_81)) (or (or ?v_42 ?v_139) ?v_67)) (or (or ?v_1 ?v_93) ?v_107)) (or (or ?v_113 P14) ?v_84)) (or (or ?v_127 ?v_113) ?v_2)) (or (or ?v_154 ?v_53) P1)) (or (or P9 ?v_69) ?v_68)) (or (or ?v_133 ?v_51) ?v_28)) (or (or ?v_5 ?v_29) ?v_149)) (or (or ?v_77 ?v_35) ?v_36)) (or (or P19 P7) ?v_4)) (or (or ?v_124 ?v_19) ?v_70)) (or (or ?v_138 ?v_140) ?v_31)) (or (or ?v_34 ?v_66) ?v_83)) (or (or ?v_98 ?v_82) ?v_48)) (or (or P26 ?v_117) ?v_151)) (or (or P9 P26) ?v_9)) (or (or ?v_20 ?v_133) ?v_35)) (or (or ?v_8 ?v_155) ?v_123)) (or (or ?v_146 P25) ?v_55)) (or (or ?v_153 ?v_115) ?v_129)) (or (or ?v_130 ?v_10) ?v_8)) (or (or ?v_156 ?v_41) ?v_97)) (or (or ?v_44 ?v_2) ?v_71)) (or (or ?v_117 P26) ?v_115)) (or (or ?v_25 ?v_131) ?v_77)) (or ?v_157 ?v_31)) (or (or ?v_151 ?v_158) ?v_100)) (or (or ?v_140 P27) ?v_82)) (or (or ?v_40 ?v_4) ?v_137)) (or (or ?v_127 ?v_152) ?v_79)) (or (or ?v_7 ?v_2) ?v_70)) (or (or ?v_35 ?v_63) ?v_25)) (or (or ?v_135 ?v_13) ?v_136)) (or (or ?v_63 ?v_153) P8)) (or (or ?v_142 ?v_17) P10)) (or (or P11 ?v_109) P19)) (or (or ?v_147 ?v_27) ?v_79)) (or (or P5 ?v_123) ?v_115)) (or (or ?v_111 P15) ?v_143)) (or (or ?v_34 ?v_144) P26)) (or (or ?v_156 ?v_114) ?v_58)) (or (or ?v_139 ?v_47) ?v_60)) (or (or P5 ?v_88) ?v_20)) (or (or ?v_56 ?v_34) ?v_132)) (or (or ?v_133 ?v_42) ?v_138)) (or (or ?v_155 P21) ?v_140)) (or (or ?v_94 ?v_43) ?v_108)) (or (or ?v_47 ?v_92) ?v_123)) (or (or ?v_111 ?v_136) ?v_74)) (or (or P0 ?v_119) ?v_78)) (or (or ?v_4 ?v_22) ?v_104)) (or (or P15 ?v_85) P11)) (or (or ?v_109 ?v_121) ?v_139)) (or (or ?v_13 ?v_20) ?v_129)) (or ?v_159 ?v_150)) (or (or ?v_120 ?v_109) ?v_41)) (or (or ?v_131 P16) ?v_107)) (or (or ?v_76 ?v_91) P16)) (or (or ?v_119 ?v_149) ?v_148)) (or (or P6 ?v_82) ?v_85)) (or (or ?v_31 ?v_2) ?v_126)) (or (or ?v_7 P26) ?v_114)) (or (or ?v_14 ?v_142) P21)) (or (or ?v_64 P22) ?v_114)) (or (or ?v_69 ?v_123) ?v_28)) (or (or P25 ?v_82) ?v_1)) (or (or ?v_99 P7) ?v_92)) (or (or ?v_40 ?v_33) ?v_62)) (or (or ?v_35 ?v_146) ?v_54)) (or (or ?v_46 ?v_34) ?v_81)) (or (or ?v_90 ?v_34) P9)) (or (or ?v_7 ?v_148) ?v_66)) (or (or ?v_96 P27) P9)) (or (or ?v_86 ?v_125) ?v_79)) (or (or ?v_121 ?v_35) ?v_136)) (or (or ?v_36 ?v_37) ?v_83)) (or ?v_160 ?v_102)) (or (or ?v_29 ?v_90) ?v_67)) (or (or ?v_40 ?v_8) ?v_70)) (or (or ?v_34 ?v_121) ?v_86)) (or (or P28 P12) P27)) (or (or ?v_21 ?v_75) P12)) (or (or ?v_5 ?v_8) ?v_14)) (or (or ?v_146 ?v_57) ?v_130)) (or (or ?v_116 ?v_97) P13)) (or (or ?v_28 ?v_137) ?v_27)) (or (or ?v_129 ?v_39) ?v_153)) (or (or ?v_41 ?v_143) ?v_97)) (or (or P26 ?v_76) ?v_155)) (or (or ?v_57 P22) ?v_8)) (or (or P11 ?v_6) ?v_158)) (or (or ?v_11 ?v_83) ?v_27)) (or (or P12 ?v_144) ?v_37)) (or (or ?v_37 ?v_109) ?v_114)) (or (or ?v_97 ?v_16) ?v_131)) (or (or P14 ?v_71) P9)) (or (or ?v_33 ?v_155) ?v_41)) (or (or ?v_106 ?v_76) ?v_38)) (or (or ?v_1 ?v_114) P15)) (or (or P1 ?v_48) P25)) (or (or ?v_116 P18) P2)) (or (or P1 ?v_25) P11)) (or (or ?v_122 ?v_97) P23)) (or (or ?v_122 ?v_131) ?v_2)) (or (or ?v_42 ?v_43) ?v_146)) (or (or ?v_130 ?v_70) P10)) (or (or ?v_123 ?v_26) ?v_41)) (or (or P0 ?v_91) P3)) (or (or ?v_112 ?v_25) ?v_99)) (or (or ?v_146 ?v_30) ?v_131)) (or (or ?v_91 ?v_90) ?v_137)) (or (or ?v_97 ?v_70) ?v_118)) (or (or ?v_31 ?v_105) ?v_70)) (or (or ?v_113 ?v_93) P13)) (or (or ?v_59 P5) ?v_39)) (or (or P0 ?v_89) ?v_52)) (or (or ?v_146 ?v_40) ?v_39)) (or (or ?v_101 ?v_69) ?v_1)) (or (or ?v_32 P26) ?v_58)) (or (or ?v_155 P23) ?v_152)) (or (or ?v_141 ?v_139) ?v_38)) (or (or ?v_137 ?v_22) ?v_51)) (or (or ?v_73 ?v_82) ?v_45)) (or (or ?v_87 P3) ?v_13)) (or ?v_161 ?v_87)) (or (or ?v_133 ?v_11) ?v_8)) (or (or ?v_11 ?v_81) ?v_5)) (or (or ?v_127 ?v_134) P19)) (or (or ?v_116 ?v_37) ?v_110)) (or (or ?v_152 ?v_17) P20)) (or (or ?v_119 ?v_108) P15)) (or (or P12 ?v_8) ?v_111)) (or (or P17 ?v_49) ?v_81)) (or (or ?v_7 ?v_22) ?v_129)) (or (or ?v_56 ?v_46) ?v_28)) (or (or ?v_88 ?v_9) ?v_130)) (or (or ?v_142 ?v_29) ?v_74)) (or (or ?v_66 ?v_154) ?v_144)) (or (or ?v_104 ?v_86) ?v_29)) (or (or ?v_14 ?v_67) ?v_48)) (or (or P11 ?v_136) ?v_16)) (or (or ?v_75 ?v_150) ?v_103)) (or (or ?v_20 ?v_15) ?v_71)) (or (or P0 ?v_60) ?v_153)) (or (or P19 ?v_48) ?v_30)) (or (or ?v_10 ?v_116) ?v_64)) (or (or ?v_21 ?v_136) ?v_59)) (or (or ?v_151 ?v_50) P12)) (or (or ?v_10 ?v_103) P2)) (or (or ?v_25 ?v_132) ?v_43)) (or (or ?v_100 ?v_50) ?v_20)) (or (or ?v_122 P18) ?v_105)) (or (or ?v_153 ?v_141) P16)) (or (or ?v_140 P19) ?v_50)) (or (or ?v_63 P21) ?v_76)) (or (or ?v_117 P5) ?v_63)) (or (or ?v_142 ?v_9) ?v_33)) (or (or ?v_84 ?v_96) ?v_54)) (or (or ?v_97 ?v_108) ?v_59)) (or (or P24 ?v_98) ?v_35)) (or (or ?v_40 ?v_6) ?v_21)) (or (or ?v_70 ?v_110) ?v_112)) (or (or ?v_64 ?v_9) P25)) (or (or ?v_153 ?v_11) ?v_89)) (or (or ?v_101 ?v_8) ?v_148)) (or (or ?v_72 ?v_133) ?v_154)) (or (or ?v_50 ?v_158) P0)) (or (or ?v_110 ?v_27) ?v_156)) (or (or ?v_27 ?v_106) ?v_33)) (or (or ?v_86 ?v_53) ?v_17)) (or (or ?v_15 ?v_22) ?v_2)) (or (or ?v_4 ?v_127) ?v_17)) (or (or ?v_5 ?v_112) ?v_47)) (or (or ?v_73 ?v_85) ?v_56)) (or (or ?v_73 ?v_64) ?v_154)) (or (or ?v_105 ?v_15) ?v_106)) (or (or ?v_101 ?v_47) ?v_25)) (or (or ?v_56 ?v_64) ?v_118)) (or (or ?v_99 P11) ?v_124)) (or (or ?v_49 ?v_151) ?v_103)) (or (or ?v_148 ?v_92) ?v_121)) (or (or P15 P2) ?v_130)) (or (or ?v_131 P15) P3)) (or (or ?v_19 ?v_51) ?v_27)) (or (or P16 ?v_144) ?v_143)) (or (or ?v_56 ?v_127) P15)) (or (or ?v_137 ?v_152) ?v_96)) (or (or ?v_81 ?v_132) P20)) (or (or ?v_117 ?v_46) ?v_84)) (or (or ?v_59 ?v_137) ?v_72)) (or (or ?v_75 ?v_76) ?v_36)) (or (or ?v_59 ?v_90) ?v_43)) (or (or P10 ?v_1) ?v_112)) (or (or P23 ?v_75) ?v_70)) (or (or ?v_36 ?v_152) ?v_118)) (or (or ?v_92 ?v_37) P9)) (or (or ?v_106 ?v_87) P27)) (or (or ?v_22 ?v_76) ?v_103)) (or (or P17 ?v_132) ?v_97)) (or (or ?v_63 ?v_58) ?v_84)) (or (or ?v_37 ?v_20) ?v_17)) (or (or P11 ?v_147) ?v_72)))))))))))))))))))))))))
(check-sat)
(exit)
